c Created with the Wolfram Language : www.wolfram.com
c 
p edge 70 255
e 6 7
e 6 10
e 8 10
e 3 11
e 7 11
e 3 12
e 12 13
e 6 14
e 7 15
e 14 15
e 11 16
e 6 17
e 11 18
e 15 18
e 3 19
e 15 19
e 1 20
e 12 20
e 14 20
e 15 21
e 20 21
e 8 22
e 9 22
e 11 22
e 17 22
e 9 23
e 1 24
e 9 24
e 10 24
e 22 24
e 1 25
e 21 25
e 2 26
e 19 26
e 3 27
e 8 27
e 12 27
e 13 27
e 3 28
e 4 28
e 23 28
e 21 29
e 1 30
e 3 30
e 18 30
e 23 30
e 25 30
e 26 30
e 7 31
e 8 31
e 29 31
e 2 32
e 10 33
e 12 34
e 16 34
e 6 35
e 11 35
e 22 35
e 26 35
e 34 35
e 13 36
e 18 36
e 21 36
e 27 36
e 33 36
e 34 36
e 21 37
e 24 37
e 34 37
e 4 38
e 10 38
e 30 38
e 3 39
e 5 39
e 15 39
e 16 39
e 21 39
e 23 39
e 29 39
e 10 40
e 12 40
e 37 40
e 23 41
e 24 41
e 31 41
e 33 41
e 36 41
e 39 41
e 12 42
e 14 42
e 15 42
e 19 43
e 23 43
e 35 43
e 9 44
e 24 44
e 30 44
e 33 44
e 34 44
e 19 45
e 32 45
e 42 45
e 14 46
e 23 46
e 26 46
e 28 46
e 30 46
e 32 46
e 41 46
e 7 47
e 9 47
e 10 47
e 13 47
e 20 47
e 36 47
e 46 47
e 10 48
e 16 48
e 17 48
e 23 48
e 37 48
e 4 49
e 6 49
e 7 49
e 8 49
e 22 49
e 45 49
e 3 50
e 17 50
e 26 50
e 27 50
e 34 50
e 42 50
e 43 50
e 1 51
e 7 51
e 10 51
e 29 51
e 43 51
e 2 52
e 5 52
e 24 52
e 43 52
e 7 53
e 43 53
e 51 53
e 8 54
e 10 54
e 22 54
e 39 54
e 40 54
e 46 54
e 47 54
e 48 54
e 11 55
e 22 55
e 31 55
e 48 55
e 5 56
e 11 56
e 16 56
e 38 56
e 50 56
e 5 57
e 6 57
e 13 57
e 14 57
e 43 57
e 44 57
e 54 57
e 8 58
e 9 58
e 10 58
e 27 58
e 29 58
e 33 58
e 34 58
e 38 58
e 43 58
e 2 59
e 10 59
e 15 59
e 17 59
e 27 59
e 41 59
e 42 59
e 45 59
e 7 60
e 17 60
e 28 60
e 30 60
e 35 60
e 13 61
e 17 61
e 41 61
e 20 62
e 34 62
e 38 62
e 44 62
e 45 62
e 1 63
e 3 63
e 13 63
e 57 63
e 7 64
e 8 64
e 24 64
e 38 64
e 42 64
e 49 64
e 11 65
e 19 65
e 24 65
e 27 65
e 29 65
e 32 65
e 5 66
e 15 66
e 20 66
e 35 66
e 38 66
e 41 66
e 44 66
e 45 66
e 52 66
e 64 66
e 18 67
e 20 67
e 30 67
e 42 67
e 49 67
e 56 67
e 57 67
e 59 67
e 63 67
e 8 68
e 26 68
e 36 68
e 38 68
e 42 68
e 46 68
e 59 68
e 5 69
e 6 69
e 15 69
e 20 69
e 26 69
e 34 69
e 58 69
e 4 70
e 16 70
e 18 70
e 21 70
e 36 70
e 52 70
